3 5 2.0
3 2 1 117 2 125 2 4 140 2 130 2 4 150 5 160 
3 2 1 214 3 150 2 3 55 2 66 2 5 78 3 65 
3 2 1 87 2 62 2 4 70 3 80 2 4 190 5 100 
1 40 62 147 
1 2 65 127 
1 76 26 149 
1 177 34 241 
1 61 32 137 
